c PMC file for PBN EPFL/random_control/int2float_distill_EPFL/random_control/int2float_miter written by probABC
p cnf 544 1386
c ind 1 2 3 4 5 6 7 8 9 10 11 457 458 459 460 461 462 463 464 465 466 467 468 469 470 471 472 473 474 475 476 477 478 479 480 481 482 483 484 485 486 487 488 489 490 491 492 493 494 495 496 497 498 499 500 501 502 503 504 505 506 507 508 509 510 511 512 513 514 515 516 517 518 519 520 521 522 0
35 2 -5 0
-35 -2 0
-35 5 0
36 5 9 0
-36 -5 0
-36 -9 0
37 35 36 0
-37 -35 0
-37 -36 0
38 -1 37 0
-38 1 0
-38 -37 0
39 -2 -5 0
-39 2 0
-39 5 0
40 1 -39 0
-40 -1 0
-40 39 0
41 38 40 0
-41 -38 0
-41 -40 0
42 7 41 0
-42 -7 0
-42 -41 0
43 8 -42 0
-43 -8 0
-43 42 0
44 -5 -9 0
-44 5 0
-44 9 0
45 43 44 0
-45 -43 0
-45 -44 0
46 -12 45 0
-46 12 0
-46 -45 0
47 12 -45 0
-47 -12 0
-47 45 0
48 46 47 0
-48 -46 0
-48 -47 0
49 6 -48 0
-49 -6 0
-49 48 0
50 5 -8 0
-50 -5 0
-50 8 0
51 -2 3 0
-51 2 0
-51 -3 0
52 -6 8 0
-52 6 0
-52 -8 0
53 -51 -52 0
-53 51 0
-53 52 0
54 50 53 0
-54 -50 0
-54 -53 0
55 -4 54 0
-55 4 0
-55 -54 0
56 -5 -8 0
-56 5 0
-56 8 0
57 4 -56 0
-57 -4 0
-57 56 0
58 55 57 0
-58 -55 0
-58 -57 0
59 9 58 0
-59 -9 0
-59 -58 0
60 -6 -9 0
-60 6 0
-60 9 0
61 5 -60 0
-61 -5 0
-61 60 0
62 59 61 0
-62 -59 0
-62 -61 0
63 49 -62 0
-63 -49 0
-63 62 0
64 10 63 0
-64 -10 0
-64 -63 0
65 -5 9 0
-65 5 0
-65 -9 0
66 4 -65 0
-66 -4 0
-66 65 0
67 5 8 0
-67 -5 0
-67 -8 0
68 66 67 0
-68 -66 0
-68 -67 0
69 3 68 0
-69 -3 0
-69 -68 0
70 -2 -69 0
-70 2 0
-70 69 0
71 2 -3 0
-71 -2 0
-71 3 0
72 8 9 0
-72 -8 0
-72 -9 0
73 -71 -72 0
-73 71 0
-73 72 0
74 10 73 0
-74 -10 0
-74 -73 0
75 70 -74 0
-75 -70 0
-75 74 0
76 7 75 0
-76 -7 0
-76 -75 0
77 -6 -76 0
-77 6 0
-77 76 0
78 -7 -10 0
-78 7 0
-78 10 0
79 6 -78 0
-79 -6 0
-79 78 0
80 77 79 0
-80 -77 0
-80 -79 0
81 64 -80 0
-81 -64 0
-81 80 0
82 11 81 0
-82 -11 0
-82 -81 0
83 3 -4 0
-83 -3 0
-83 4 0
84 -3 4 0
-84 3 0
-84 -4 0
85 83 84 0
-85 -83 0
-85 -84 0
86 10 85 0
-86 -10 0
-86 -85 0
87 9 -86 0
-87 -9 0
-87 86 0
88 11 87 0
-88 -11 0
-88 -87 0
89 8 88 0
-89 -8 0
-89 -88 0
90 -10 -11 0
-90 10 0
-90 11 0
91 -13 90 0
-91 13 0
-91 -90 0
92 13 -90 0
-92 -13 0
-92 90 0
93 91 92 0
-93 -91 0
-93 -92 0
94 -9 93 0
-94 9 0
-94 -93 0
95 89 94 0
-95 -89 0
-95 -94 0
96 -7 95 0
-96 7 0
-96 -95 0
97 7 -11 0
-97 -7 0
-97 11 0
98 -8 -97 0
-98 8 0
-98 97 0
99 96 98 0
-99 -96 0
-99 -98 0
100 82 -99 0
-100 -82 0
-100 99 0
101 -14 100 0
-101 14 0
-101 -100 0
102 14 -100 0
-102 -14 0
-102 100 0
103 101 102 0
-103 -101 0
-103 -102 0
104 5 10 0
-104 -5 0
-104 -10 0
105 3 8 0
-105 -3 0
-105 -8 0
106 104 105 0
-106 -104 0
-106 -105 0
107 2 106 0
-107 -2 0
-107 -106 0
108 -2 -3 0
-108 2 0
-108 3 0
109 -1 -108 0
-109 1 0
-109 108 0
110 1 3 0
-110 -1 0
-110 -3 0
111 109 110 0
-111 -109 0
-111 -110 0
112 8 111 0
-112 -8 0
-112 -111 0
113 -5 -112 0
-113 5 0
-113 112 0
114 -9 10 0
-114 9 0
-114 -10 0
115 113 114 0
-115 -113 0
-115 -114 0
116 107 -115 0
-116 -107 0
-116 115 0
117 7 116 0
-117 -7 0
-117 -116 0
118 -4 -5 0
-118 4 0
-118 5 0
119 -8 118 0
-119 8 0
-119 -118 0
120 10 -119 0
-120 -10 0
-120 119 0
121 -15 120 0
-121 15 0
-121 -120 0
122 15 -120 0
-122 -15 0
-122 120 0
123 121 122 0
-123 -121 0
-123 -122 0
124 9 123 0
-124 -9 0
-124 -123 0
125 -16 124 0
-125 16 0
-125 -124 0
126 16 -124 0
-126 -16 0
-126 124 0
127 125 126 0
-127 -125 0
-127 -126 0
128 8 -10 0
-128 -8 0
-128 10 0
129 -17 128 0
-129 17 0
-129 -128 0
130 17 -128 0
-130 -17 0
-130 128 0
131 129 130 0
-131 -129 0
-131 -130 0
132 -127 -131 0
-132 127 0
-132 131 0
133 117 -132 0
-133 -117 0
-133 132 0
134 6 133 0
-134 -6 0
-134 -133 0
135 9 10 0
-135 -9 0
-135 -10 0
136 -5 -135 0
-136 5 0
-136 135 0
137 7 8 0
-137 -7 0
-137 -8 0
138 -18 137 0
-138 18 0
-138 -137 0
139 18 -137 0
-139 -18 0
-139 137 0
140 138 139 0
-140 -138 0
-140 -139 0
141 5 140 0
-141 -5 0
-141 -140 0
142 136 141 0
-142 -136 0
-142 -141 0
143 -3 142 0
-143 3 0
-143 -142 0
144 -2 -143 0
-144 2 0
-144 143 0
145 -8 10 0
-145 8 0
-145 -10 0
146 -65 -145 0
-146 65 0
-146 145 0
147 144 146 0
-147 -144 0
-147 -146 0
148 -4 147 0
-148 4 0
-148 -147 0
149 -19 148 0
-149 19 0
-149 -148 0
150 19 -148 0
-150 -19 0
-150 148 0
151 149 150 0
-151 -149 0
-151 -150 0
152 -5 -114 0
-152 5 0
-152 114 0
153 -8 -10 0
-153 8 0
-153 10 0
154 152 153 0
-154 -152 0
-154 -153 0
155 -7 154 0
-155 7 0
-155 -154 0
156 -151 155 0
-156 151 0
-156 -155 0
157 -6 156 0
-157 6 0
-157 -156 0
158 5 -114 0
-158 -5 0
-158 114 0
159 -131 158 0
-159 131 0
-159 -158 0
160 7 159 0
-160 -7 0
-160 -159 0
161 157 160 0
-161 -157 0
-161 -160 0
162 134 -161 0
-162 -134 0
-162 161 0
163 11 162 0
-163 -11 0
-163 -162 0
164 -7 10 0
-164 7 0
-164 -10 0
165 5 -164 0
-165 -5 0
-165 164 0
166 -6 7 0
-166 6 0
-166 -7 0
167 4 -166 0
-167 -4 0
-167 166 0
168 165 167 0
-168 -165 0
-168 -167 0
169 3 168 0
-169 -3 0
-169 -168 0
170 2 -166 0
-170 -2 0
-170 166 0
171 165 170 0
-171 -165 0
-171 -170 0
172 4 171 0
-172 -4 0
-172 -171 0
173 -3 -4 0
-173 3 0
-173 4 0
174 -5 -164 0
-174 5 0
-174 164 0
175 -20 174 0
-175 20 0
-175 -174 0
176 20 -174 0
-176 -20 0
-176 174 0
177 175 176 0
-177 -175 0
-177 -176 0
178 -173 177 0
-178 173 0
-178 -177 0
179 11 178 0
-179 -11 0
-179 -178 0
180 172 -179 0
-180 -172 0
-180 179 0
181 169 -180 0
-181 -169 0
-181 180 0
182 8 181 0
-182 -8 0
-182 -181 0
183 97 182 0
-183 -97 0
-183 -182 0
184 9 183 0
-184 -9 0
-184 -183 0
185 -7 -11 0
-185 7 0
-185 11 0
186 -8 -185 0
-186 8 0
-186 185 0
187 -114 -186 0
-187 114 0
-187 186 0
188 184 187 0
-188 -184 0
-188 -187 0
189 163 -188 0
-189 -163 0
-189 188 0
190 -5 7 0
-190 5 0
-190 -7 0
191 -1 4 0
-191 1 0
-191 -4 0
192 -190 -191 0
-192 190 0
-192 191 0
193 5 -6 0
-193 -5 0
-193 6 0
194 -4 -193 0
-194 4 0
-194 193 0
195 192 194 0
-195 -192 0
-195 -194 0
196 -2 195 0
-196 2 0
-196 -195 0
197 5 7 0
-197 -5 0
-197 -7 0
198 -1 -2 0
-198 1 0
-198 2 0
199 -5 198 0
-199 5 0
-199 -198 0
200 -4 -199 0
-200 4 0
-200 199 0
201 197 200 0
-201 -197 0
-201 -200 0
202 6 201 0
-202 -6 0
-202 -201 0
203 196 202 0
-203 -196 0
-203 -202 0
204 -3 203 0
-204 3 0
-204 -203 0
205 -21 204 0
-205 21 0
-205 -204 0
206 21 -204 0
-206 -21 0
-206 204 0
207 205 206 0
-207 -205 0
-207 -206 0
208 -4 7 0
-208 4 0
-208 -7 0
209 3 -208 0
-209 -3 0
-209 208 0
210 4 -6 0
-210 -4 0
-210 6 0
211 209 210 0
-211 -209 0
-211 -210 0
212 -5 211 0
-212 5 0
-212 -211 0
213 -207 212 0
-213 207 0
-213 -212 0
214 8 213 0
-214 -8 0
-214 -213 0
215 6 -7 0
-215 -6 0
-215 7 0
216 -22 215 0
-216 22 0
-216 -215 0
217 22 -215 0
-217 -22 0
-217 215 0
218 216 217 0
-218 -216 0
-218 -217 0
219 -3 218 0
-219 3 0
-219 -218 0
220 170 219 0
-220 -170 0
-220 -219 0
221 -5 220 0
-221 5 0
-221 -220 0
222 -4 -221 0
-222 4 0
-222 221 0
223 -6 118 0
-223 6 0
-223 -118 0
224 -7 -223 0
-224 7 0
-224 223 0
225 222 224 0
-225 -222 0
-225 -224 0
226 214 -225 0
-226 -214 0
-226 225 0
227 -23 226 0
-227 23 0
-227 -226 0
228 23 -226 0
-228 -23 0
-228 226 0
229 227 228 0
-229 -227 0
-229 -228 0
230 9 -229 0
-230 -9 0
-230 229 0
231 7 -8 0
-231 -7 0
-231 8 0
232 -4 -231 0
-232 4 0
-232 231 0
233 -7 8 0
-233 7 0
-233 -8 0
234 3 -233 0
-234 -3 0
-234 233 0
235 232 234 0
-235 -232 0
-235 -234 0
236 -6 235 0
-236 6 0
-236 -235 0
237 -24 236 0
-237 24 0
-237 -236 0
238 24 -236 0
-238 -24 0
-238 236 0
239 237 238 0
-239 -237 0
-239 -238 0
240 -5 239 0
-240 5 0
-240 -239 0
241 -5 -6 0
-241 5 0
-241 6 0
242 -25 241 0
-242 25 0
-242 -241 0
243 25 -241 0
-243 -25 0
-243 241 0
244 242 243 0
-244 -242 0
-244 -243 0
245 -8 -244 0
-245 8 0
-245 244 0
246 -26 245 0
-246 26 0
-246 -245 0
247 26 -245 0
-247 -26 0
-247 245 0
248 246 247 0
-248 -246 0
-248 -247 0
249 -7 248 0
-249 7 0
-249 -248 0
250 240 249 0
-250 -240 0
-250 -249 0
251 230 -250 0
-251 -230 0
-251 250 0
252 10 251 0
-252 -10 0
-252 -251 0
253 -5 -7 0
-253 5 0
-253 7 0
254 -52 -253 0
-254 52 0
-254 253 0
255 231 254 0
-255 -231 0
-255 -254 0
256 -9 255 0
-256 9 0
-256 -255 0
257 252 256 0
-257 -252 0
-257 -256 0
258 11 257 0
-258 -11 0
-258 -257 0
259 -9 -11 0
-259 9 0
-259 11 0
260 9 -10 0
-260 -9 0
-260 10 0
261 -6 -260 0
-261 6 0
-261 260 0
262 259 261 0
-262 -259 0
-262 -261 0
263 -8 262 0
-263 8 0
-263 -262 0
264 -7 -263 0
-264 7 0
-264 263 0
265 -6 -8 0
-265 6 0
-265 8 0
266 -9 265 0
-266 9 0
-266 -265 0
267 11 266 0
-267 -11 0
-267 -266 0
268 -10 267 0
-268 10 0
-268 -267 0
269 264 268 0
-269 -264 0
-269 -268 0
270 258 -269 0
-270 -258 0
-270 269 0
271 -7 -8 0
-271 7 0
-271 8 0
272 3 -271 0
-272 -3 0
-272 271 0
273 -6 -44 0
-273 6 0
-273 44 0
274 -27 273 0
-274 27 0
-274 -273 0
275 27 -273 0
-275 -27 0
-275 273 0
276 274 275 0
-276 -274 0
-276 -275 0
277 -272 276 0
-277 272 0
-277 -276 0
278 6 -36 0
-278 -6 0
-278 36 0
279 140 -278 0
-279 -140 0
-279 278 0
280 -28 279 0
-280 28 0
-280 -279 0
281 28 -279 0
-281 -28 0
-281 279 0
282 280 281 0
-282 -280 0
-282 -281 0
283 277 -282 0
-283 -277 0
-283 282 0
284 10 283 0
-284 -10 0
-284 -283 0
285 11 -284 0
-285 -11 0
-285 284 0
286 4 -285 0
-286 -4 0
-286 285 0
287 -6 -7 0
-287 6 0
-287 7 0
288 -5 8 0
-288 5 0
-288 -8 0
289 -287 -288 0
-289 287 0
-289 288 0
290 6 7 0
-290 -6 0
-290 -7 0
291 -198 -290 0
-291 198 0
-291 290 0
292 289 291 0
-292 -289 0
-292 -291 0
293 -4 292 0
-293 4 0
-293 -292 0
294 -3 -293 0
-294 3 0
-294 293 0
295 5 233 0
-295 -5 0
-295 -233 0
296 8 166 0
-296 -8 0
-296 -166 0
297 4 296 0
-297 -4 0
-297 -296 0
298 -8 287 0
-298 8 0
-298 -287 0
299 7 108 0
-299 -7 0
-299 -108 0
300 -6 -299 0
-300 6 0
-300 299 0
301 10 300 0
-301 -10 0
-301 -300 0
302 298 -301 0
-302 -298 0
-302 301 0
303 297 -302 0
-303 -297 0
-303 302 0
304 295 -303 0
-304 -295 0
-304 303 0
305 294 -304 0
-305 -294 0
-305 304 0
306 9 305 0
-306 -9 0
-306 -305 0
307 -4 -9 0
-307 4 0
-307 9 0
308 84 307 0
-308 -84 0
-308 -307 0
309 -7 308 0
-309 7 0
-309 -308 0
310 -6 -309 0
-310 6 0
-310 309 0
311 -8 -310 0
-311 8 0
-311 310 0
312 10 -311 0
-312 -10 0
-312 311 0
313 -5 -312 0
-313 5 0
-313 312 0
314 -8 -287 0
-314 8 0
-314 287 0
315 -10 314 0
-315 10 0
-315 -314 0
316 -29 315 0
-316 29 0
-316 -315 0
317 29 -315 0
-317 -29 0
-317 315 0
318 316 317 0
-318 -316 0
-318 -317 0
319 313 -318 0
-319 -313 0
-319 318 0
320 306 -319 0
-320 -306 0
-320 319 0
321 11 320 0
-321 -11 0
-321 -320 0
322 -7 -9 0
-322 7 0
-322 9 0
323 -265 -322 0
-323 265 0
-323 322 0
324 -2 -4 0
-324 2 0
-324 4 0
325 -1 -324 0
-325 1 0
-325 324 0
326 6 8 0
-326 -6 0
-326 -8 0
327 9 -326 0
-327 -9 0
-327 326 0
328 -325 -327 0
-328 325 0
-328 327 0
329 -30 328 0
-329 30 0
-329 -328 0
330 30 -328 0
-330 -30 0
-330 328 0
331 329 330 0
-331 -329 0
-331 -330 0
332 323 -331 0
-332 -323 0
-332 331 0
333 -3 332 0
-333 3 0
-333 -332 0
334 -9 -265 0
-334 9 0
-334 265 0
335 -4 -7 0
-335 4 0
-335 7 0
336 -31 335 0
-336 31 0
-336 -335 0
337 31 -335 0
-337 -31 0
-337 335 0
338 336 337 0
-338 -336 0
-338 -337 0
339 -334 338 0
-339 334 0
-339 -338 0
340 333 339 0
-340 -333 0
-340 -339 0
341 -5 340 0
-341 5 0
-341 -340 0
342 -173 -253 0
-342 173 0
-342 253 0
343 -6 342 0
-343 6 0
-343 -342 0
344 -32 343 0
-344 32 0
-344 -343 0
345 32 -343 0
-345 -32 0
-345 343 0
346 344 345 0
-346 -344 0
-346 -345 0
347 -218 -346 0
-347 218 0
-347 346 0
348 8 347 0
-348 -8 0
-348 -347 0
349 9 -348 0
-349 -9 0
-349 348 0
350 10 11 0
-350 -10 0
-350 -11 0
351 349 -350 0
-351 -349 0
-351 350 0
352 341 -351 0
-352 -341 0
-352 351 0
353 -33 352 0
-353 33 0
-353 -352 0
354 33 -352 0
-354 -33 0
-354 352 0
355 353 354 0
-355 -353 0
-355 -354 0
361 6 45 0
-361 -6 0
-361 -45 0
362 -62 361 0
-362 62 0
-362 -361 0
363 10 362 0
-363 -10 0
-363 -362 0
364 -80 363 0
-364 80 0
-364 -363 0
365 11 364 0
-365 -11 0
-365 -364 0
366 -9 -90 0
-366 9 0
-366 90 0
367 89 366 0
-367 -89 0
-367 -366 0
368 -7 367 0
-368 7 0
-368 -367 0
369 98 368 0
-369 -98 0
-369 -368 0
370 365 -369 0
-370 -365 0
-370 369 0
371 9 -120 0
-371 -9 0
-371 120 0
372 128 371 0
-372 -128 0
-372 -371 0
373 117 -372 0
-373 -117 0
-373 372 0
374 6 373 0
-374 -6 0
-374 -373 0
375 5 -137 0
-375 -5 0
-375 137 0
376 136 375 0
-376 -136 0
-376 -375 0
377 -3 376 0
-377 3 0
-377 -376 0
378 -2 -377 0
-378 2 0
-378 377 0
379 146 378 0
-379 -146 0
-379 -378 0
380 -4 379 0
-380 4 0
-380 -379 0
381 155 380 0
-381 -155 0
-381 -380 0
382 -6 381 0
-382 6 0
-382 -381 0
383 128 158 0
-383 -128 0
-383 -158 0
384 7 383 0
-384 -7 0
-384 -383 0
385 382 384 0
-385 -382 0
-385 -384 0
386 374 -385 0
-386 -374 0
-386 385 0
387 11 386 0
-387 -11 0
-387 -386 0
388 -173 -174 0
-388 173 0
-388 174 0
389 11 388 0
-389 -11 0
-389 -388 0
390 172 -389 0
-390 -172 0
-390 389 0
391 169 -390 0
-391 -169 0
-391 390 0
392 8 391 0
-392 -8 0
-392 -391 0
393 97 392 0
-393 -97 0
-393 -392 0
394 9 393 0
-394 -9 0
-394 -393 0
395 187 394 0
-395 -187 0
-395 -394 0
396 387 -395 0
-396 -387 0
-396 395 0
397 204 212 0
-397 -204 0
-397 -212 0
398 8 397 0
-398 -8 0
-398 -397 0
399 -3 -215 0
-399 3 0
-399 215 0
400 170 399 0
-400 -170 0
-400 -399 0
401 -5 400 0
-401 5 0
-401 -400 0
402 -4 -401 0
-402 4 0
-402 401 0
403 224 402 0
-403 -224 0
-403 -402 0
404 398 -403 0
-404 -398 0
-404 403 0
405 9 404 0
-405 -9 0
-405 -404 0
406 -5 -236 0
-406 5 0
-406 236 0
407 -8 241 0
-407 8 0
-407 -241 0
408 -7 -407 0
-408 7 0
-408 407 0
409 406 408 0
-409 -406 0
-409 -408 0
410 405 -409 0
-410 -405 0
-410 409 0
411 10 410 0
-411 -10 0
-411 -410 0
412 256 411 0
-412 -256 0
-412 -411 0
413 11 412 0
-413 -11 0
-413 -412 0
414 -269 413 0
-414 269 0
-414 -413 0
415 -272 -273 0
-415 272 0
-415 273 0
416 -137 -278 0
-416 137 0
-416 278 0
417 415 416 0
-417 -415 0
-417 -416 0
418 10 417 0
-418 -10 0
-418 -417 0
419 11 -418 0
-419 -11 0
-419 418 0
420 4 -419 0
-420 -4 0
-420 419 0
421 313 315 0
-421 -313 0
-421 -315 0
422 306 -421 0
-422 -306 0
-422 421 0
423 11 422 0
-423 -11 0
-423 -422 0
424 323 328 0
-424 -323 0
-424 -328 0
425 -3 424 0
-425 3 0
-425 -424 0
426 -334 -335 0
-426 334 0
-426 335 0
427 425 426 0
-427 -425 0
-427 -426 0
428 -5 427 0
-428 5 0
-428 -427 0
429 215 343 0
-429 -215 0
-429 -343 0
430 8 429 0
-430 -8 0
-430 -429 0
431 9 -430 0
-431 -9 0
-431 430 0
432 -350 431 0
-432 350 0
-432 -431 0
433 428 -432 0
-433 -428 0
-433 432 0
434 103 370 0
-434 -103 0
-434 -370 0
435 -103 -370 0
-435 103 0
-435 370 0
436 434 435 0
-436 -434 0
-436 -435 0
437 189 -396 0
-437 -189 0
-437 396 0
438 -189 396 0
-438 189 0
-438 -396 0
439 437 438 0
-439 -437 0
-439 -438 0
440 -270 414 0
-440 270 0
-440 -414 0
441 270 -414 0
-441 -270 0
-441 414 0
442 440 441 0
-442 -440 0
-442 -441 0
443 -286 420 0
-443 286 0
-443 -420 0
444 286 -420 0
-444 -286 0
-444 420 0
445 443 444 0
-445 -443 0
-445 -444 0
446 -321 423 0
-446 321 0
-446 -423 0
447 321 -423 0
-447 -321 0
-447 423 0
448 446 447 0
-448 -446 0
-448 -447 0
449 355 433 0
-449 -355 0
-449 -433 0
450 -355 -433 0
-450 355 0
-450 433 0
451 449 450 0
-451 -449 0
-451 -450 0
452 -439 -442 0
-452 439 0
-452 442 0
453 -436 -452 0
-453 436 0
-453 452 0
454 -445 -448 0
-454 445 0
-454 448 0
455 -451 -454 0
-455 451 0
-455 454 0
456 -453 -455 0
-456 453 0
-456 455 0
34 456 0
-34 -456 0
34 0
12 -457 -523 0
-12 457 0
-12 523 0
523 -458 -459 0
-523 458 0
-523 459 0
13 -460 -524 0
-13 460 0
-13 524 0
524 -461 -462 0
-524 461 0
-524 462 0
14 -463 -525 0
-14 463 0
-14 525 0
525 -464 -465 0
-525 464 0
-525 465 0
15 -466 -526 0
-15 466 0
-15 526 0
526 -467 -468 0
-526 467 0
-526 468 0
16 -469 -527 0
-16 469 0
-16 527 0
527 -470 -471 0
-527 470 0
-527 471 0
17 -472 -528 0
-17 472 0
-17 528 0
528 -473 -474 0
-528 473 0
-528 474 0
18 -475 -529 0
-18 475 0
-18 529 0
529 -476 -477 0
-529 476 0
-529 477 0
19 -478 -530 0
-19 478 0
-19 530 0
530 -479 -480 0
-530 479 0
-530 480 0
20 -481 -531 0
-20 481 0
-20 531 0
531 -482 -483 0
-531 482 0
-531 483 0
21 -484 -532 0
-21 484 0
-21 532 0
532 -485 -486 0
-532 485 0
-532 486 0
22 -487 -533 0
-22 487 0
-22 533 0
533 -488 -489 0
-533 488 0
-533 489 0
23 -490 -534 0
-23 490 0
-23 534 0
534 -491 -492 0
-534 491 0
-534 492 0
24 -493 -535 0
-24 493 0
-24 535 0
535 -494 -495 0
-535 494 0
-535 495 0
25 -496 -536 0
-25 496 0
-25 536 0
536 -497 -498 0
-536 497 0
-536 498 0
26 -499 -537 0
-26 499 0
-26 537 0
537 -500 -501 0
-537 500 0
-537 501 0
27 -502 -538 0
-27 502 0
-27 538 0
538 -503 -504 0
-538 503 0
-538 504 0
28 -505 -539 0
-28 505 0
-28 539 0
539 -506 -507 0
-539 506 0
-539 507 0
29 -508 -540 0
-29 508 0
-29 540 0
540 -509 -510 0
-540 509 0
-540 510 0
30 -511 -541 0
-30 511 0
-30 541 0
541 -512 -513 0
-541 512 0
-541 513 0
31 -514 -542 0
-31 514 0
-31 542 0
542 -515 -516 0
-542 515 0
-542 516 0
32 -517 -543 0
-32 517 0
-32 543 0
543 -518 -519 0
-543 518 0
-543 519 0
33 -520 -544 0
-33 520 0
-33 544 0
544 -521 -522 0
-544 521 0
-544 522 0
